Route #1: 4 80 82 10 52 34 51
Route #2: 7 100 60 97 95 14
Route #3: 11 64 12 65 50 37 48 47
Route #4: 19 84 9 46 18 85 6 61 90
Route #5: 21 67 72 66 36 35 79 30 25 81
Route #6: 29 27 54
Route #7: 32 91 33 31 71 2 70 28
Route #8: 41 74 75 42 23 76 73 22
Route #9: 53 8 83 49 20 63 89
Route #10: 57 24 68 40 5
Route #11: 77 78 69 56 26 55 13
Route #12: 92 17 87 39 45 15 93
Route #13: 96 98 88 43 44 16 58 3 59
Route #14: 99 38 101 86 62 94
cost 1105